p tw 144 23761 2 
1 3 
1 4 
1 5 
1 6 
1 7 
1 8 
1 9 
1 10 
1 11 
1 12 
1 13 
1 23 
1 25 
1 36 
1 37 
1 42 
1 49 
1 57 
1 61 
1 68 
1 73 
1 82 
1 85 
1 91 
1 97 
1 99 
1 109 
1 112 
1 121 
1 125 
1 133 
1 134 
2 3 
2 4 
2 5 
2 6 
2 7 
2 8 
2 9 
2 10 
2 11 
2 12 
2 14 
2 22 
2 26 
2 30 
2 38 
2 41 
2 50 
2 52 
2 62 
2 63 
2 74 
2 79 
2 86 
2 92 
2 98 
2 108 
2 110 
2 119 
2 121 
2 122 
2 134 
2 141 
3 4 
3 5 
3 6 
3 7 
3 8 
3 9 
3 10 
3 11 
3 12 
3 15 
3 17 
3 25 
3 27 
3 39 
3 48 
3 51 
3 55 
3 63 
3 70 
3 75 
3 80 
3 87 
3 93 
3 99 
3 107 
3 111 
3 114 
3 122 
3 123 
3 135 
3 136 
4 5 
4 6 
4 7 
4 8 
4 9 
4 10 
4 11 
4 12 
4 16 
4 20 
4 26 
4 28 
4 40 
4 47 
4 52 
4 53 
4 64 
4 72 
4 75 
4 76 
4 88 
4 90 
4 97 
4 100 
4 112 
4 117 
4 124 
4 127 
4 136 
4 142 
5 6 
5 7 
5 8 
5 9 
5 10 
5 11 
5 12 
5 13 
5 17 
5 28 
5 29 
5 38 
5 41 
5 51 
5 53 
5 65 
5 69 
5 77 
5 83 
5 89 
5 94 
5 101 
5 103 
5 113 
5 116 
5 125 
5 132 
5 137 
5 138 
6 7 
6 8 
6 9 
6 10 
6 11 
6 12 
6 16 
6 18 
6 29 
6 30 
6 39 
6 42 
6 50 
6 54 
6 61 
6 66 
6 78 
6 81 
6 90 
6 95 
6 102 
6 106 
6 114 
6 120 
6 126 
6 128 
6 138 
6 139 
7 8 
7 9 
7 10 
7 11 
7 12 
7 18 
7 19 
7 27 
7 31 
7 40 
7 43 
7 55 
7 56 
7 62 
7 67 
7 79 
7 84 
7 85 
7 91 
7 101 
7 103 
7 115 
7 118 
7 127 
7 129 
7 139 
7 143 
8 9 
8 10 
8 11 
8 12 
8 19 
8 20 
8 32 
8 33 
8 37 
8 44 
8 56 
8 58 
8 65 
8 68 
8 74 
8 80 
8 88 
8 92 
8 102 
8 104 
8 111 
8 116 
8 128 
8 131 
8 140 
8 144 
9 10 
9 11 
9 12 
9 14 
9 21 
9 31 
9 33 
9 45 
9 46 
9 54 
9 57 
9 69 
9 71 
9 76 
9 81 
9 93 
9 96 
9 104 
9 105 
9 113 
9 117 
9 123 
9 129 
9 133 
9 141 
10 11 
10 12 
10 22 
10 24 
10 34 
10 35 
10 44 
10 46 
10 49 
10 58 
10 66 
10 70 
10 77 
10 82 
10 86 
10 94 
10 105 
10 106 
10 115 
10 118 
10 124 
10 130 
10 135 
10 142 
11 12 
11 21 
11 23 
11 32 
11 35 
11 43 
11 47 
11 59 
11 60 
11 64 
11 71 
11 78 
11 83 
11 87 
11 95 
11 98 
11 107 
11 109 
11 119 
11 130 
11 131 
11 137 
11 143 
12 15 
12 24 
12 34 
12 36 
12 45 
12 48 
12 59 
12 60 
12 67 
12 72 
12 73 
12 84 
12 89 
12 96 
12 100 
12 108 
12 110 
12 120 
12 126 
12 132 
12 140 
12 144 
13 14 
13 15 
13 16 
13 17 
13 18 
13 19 
13 20 
13 21 
13 22 
13 23 
13 24 
13 25 
13 28 
13 37 
13 38 
13 49 
13 51 
13 61 
13 69 
13 73 
13 83 
13 85 
13 94 
13 97 
13 103 
13 109 
13 116 
13 121 
13 132 
13 133 
13 138 
14 15 
14 16 
14 17 
14 18 
14 19 
14 20 
14 21 
14 22 
14 23 
14 24 
14 26 
14 31 
14 38 
14 46 
14 50 
14 54 
14 62 
14 71 
14 74 
14 76 
14 86 
14 96 
14 98 
14 104 
14 110 
14 113 
14 122 
14 123 
14 133 
14 134 
15 16 
15 17 
15 18 
15 19 
15 20 
15 21 
15 22 
15 23 
15 24 
15 27 
15 34 
15 39 
15 45 
15 51 
15 59 
15 63 
15 67 
15 73 
15 75 
15 87 
15 89 
15 99 
15 100 
15 110 
15 111 
15 123 
15 126 
15 135 
15 140 
16 17 
16 18 
16 19 
16 20 
16 21 
16 22 
16 23 
16 24 
16 28 
16 29 
16 39 
16 40 
16 50 
16 52 
16 61 
16 64 
16 76 
16 81 
16 88 
16 95 
16 100 
16 106 
16 112 
16 120 
16 124 
16 128 
16 136 
16 139 
17 18 
17 19 
17 20 
17 21 
17 22 
17 23 
17 24 
17 25 
17 29 
17 41 
17 48 
17 53 
17 55 
17 65 
17 70 
17 77 
17 80 
17 89 
17 93 
17 101 
17 107 
17 113 
17 114 
17 122 
17 125 
17 136 
17 137 
18 19 
18 20 
18 21 
18 22 
18 23 
18 24 
18 27 
18 30 
18 40 
18 42 
18 54 
18 56 
18 62 
18 66 
18 78 
18 84 
18 85 
18 90 
18 101 
18 102 
18 114 
18 118 
18 126 
18 129 
18 138 
18 143 
19 20 
19 21 
19 22 
19 23 
19 24 
19 31 
19 33 
19 37 
19 43 
19 55 
19 58 
19 65 
19 67 
19 74 
19 79 
19 88 
19 91 
19 102 
19 103 
19 111 
19 115 
19 127 
19 131 
19 139 
19 144 
20 21 
20 22 
20 23 
20 24 
20 26 
20 32 
20 44 
20 47 
20 53 
20 56 
20 68 
20 72 
20 75 
20 80 
20 90 
20 92 
20 97 
20 104 
20 116 
20 117 
20 127 
20 128 
20 140 
20 142 
21 22 
21 23 
21 24 
21 32 
21 33 
21 43 
21 45 
21 57 
21 60 
21 64 
21 69 
21 78 
21 81 
21 87 
21 93 
21 98 
21 105 
21 109 
21 117 
21 129 
21 130 
21 137 
21 141 
22 23 
22 24 
22 30 
22 34 
22 41 
22 46 
22 52 
22 58 
22 63 
22 70 
22 79 
22 82 
22 92 
22 94 
22 106 
22 108 
22 118 
22 119 
22 121 
22 130 
22 141 
22 142 
23 24 
23 35 
23 36 
23 42 
23 47 
23 57 
23 59 
23 68 
23 71 
23 82 
23 83 
23 91 
23 95 
23 99 
23 107 
23 112 
23 119 
23 125 
23 131 
23 134 
23 143 
24 35 
24 36 
24 44 
24 48 
24 49 
24 60 
24 66 
24 72 
24 77 
24 84 
24 86 
24 96 
24 105 
24 108 
24 115 
24 120 
24 124 
24 132 
24 135 
24 144 
25 26 
25 27 
25 28 
25 29 
25 30 
25 31 
25 32 
25 33 
25 34 
25 35 
25 36 
25 37 
25 48 
25 49 
25 55 
25 61 
25 70 
25 73 
25 80 
25 85 
25 93 
25 97 
25 107 
25 109 
25 114 
25 121 
25 122 
25 133 
25 136 
26 27 
26 28 
26 29 
26 30 
26 31 
26 32 
26 33 
26 34 
26 35 
26 36 
26 38 
26 47 
26 50 
26 53 
26 62 
26 72 
26 74 
26 75 
26 86 
26 90 
26 97 
26 98 
26 110 
26 117 
26 122 
26 127 
26 134 
26 142 
27 28 
27 29 
27 30 
27 31 
27 32 
27 33 
27 34 
27 35 
27 36 
27 39 
27 40 
27 51 
27 56 
27 62 
27 63 
27 75 
27 84 
27 85 
27 87 
27 99 
27 101 
27 111 
27 118 
27 123 
27 129 
27 135 
27 143 
28 29 
28 30 
28 31 
28 32 
28 33 
28 34 
28 35 
28 36 
28 38 
28 40 
28 51 
28 52 
28 64 
28 69 
28 76 
28 83 
28 88 
28 94 
28 100 
28 103 
28 112 
28 116 
28 124 
28 132 
28 136 
28 138 
29 30 
29 31 
29 32 
29 33 
29 34 
29 35 
29 36 
29 39 
29 41 
29 50 
29 53 
29 61 
29 65 
29 77 
29 81 
29 89 
29 95 
29 101 
29 106 
29 113 
29 120 
29 125 
29 128 
29 137 
29 139 
30 31 
30 32 
30 33 
30 34 
30 35 
30 36 
30 41 
30 42 
30 52 
30 54 
30 63 
30 66 
30 78 
30 79 
30 90 
30 92 
30 102 
30 108 
30 114 
30 119 
30 121 
30 126 
30 138 
30 141 
31 32 
31 33 
31 34 
31 35 
31 36 
31 43 
31 46 
31 54 
31 55 
31 67 
31 71 
31 76 
31 79 
31 91 
31 96 
31 103 
31 104 
31 113 
31 115 
31 123 
31 127 
31 133 
31 139 
32 33 
32 34 
32 35 
32 36 
32 43 
32 44 
32 56 
32 60 
32 64 
32 68 
32 78 
32 80 
32 87 
32 92 
32 98 
32 104 
32 109 
32 116 
32 128 
32 130 
32 137 
32 140 
33 34 
33 35 
33 36 
33 37 
33 45 
33 57 
33 58 
33 65 
33 69 
33 74 
33 81 
33 88 
33 93 
33 102 
33 105 
33 111 
33 117 
33 129 
33 131 
33 141 
33 144 
34 35 
34 36 
34 45 
34 46 
34 58 
34 59 
34 67 
34 70 
34 73 
34 82 
34 89 
34 94 
34 100 
34 106 
34 110 
34 118 
34 126 
34 130 
34 140 
34 142 
35 36 
35 44 
35 47 
35 49 
35 59 
35 66 
35 71 
35 77 
35 83 
35 86 
35 95 
35 105 
35 107 
35 115 
35 119 
35 124 
35 131 
35 135 
35 143 
36 42 
36 48 
36 57 
36 60 
36 68 
36 72 
36 82 
36 84 
36 91 
36 96 
36 99 
36 108 
36 112 
36 120 
36 125 
36 132 
36 134 
36 144 
37 38 
37 39 
37 40 
37 41 
37 42 
37 43 
37 44 
37 45 
37 46 
37 47 
37 48 
37 49 
37 58 
37 61 
37 65 
37 73 
37 74 
37 85 
37 88 
37 97 
37 102 
37 109 
37 111 
37 121 
37 131 
37 133 
37 144 
38 39 
38 40 
38 41 
38 42 
38 43 
38 44 
38 45 
38 46 
38 47 
38 48 
38 50 
38 51 
38 62 
38 69 
38 74 
38 83 
38 86 
38 94 
38 98 
38 103 
38 110 
38 116 
38 122 
38 132 
38 134 
38 138 
39 40 
39 41 
39 42 
39 43 
39 44 
39 45 
39 46 
39 47 
39 48 
39 50 
39 51 
39 61 
39 63 
39 75 
39 81 
39 87 
39 95 
39 99 
39 106 
39 111 
39 120 
39 123 
39 128 
39 135 
39 139 
40 41 
40 42 
40 43 
40 44 
40 45 
40 46 
40 47 
40 48 
40 52 
40 56 
40 62 
40 64 
40 76 
40 84 
40 85 
40 88 
40 100 
40 101 
40 112 
40 118 
40 124 
40 129 
40 136 
40 143 
41 42 
41 43 
41 44 
41 45 
41 46 
41 47 
41 48 
41 52 
41 53 
41 63 
41 65 
41 77 
41 79 
41 89 
41 92 
41 101 
41 108 
41 113 
41 119 
41 121 
41 125 
41 137 
41 141 
42 43 
42 44 
42 45 
42 46 
42 47 
42 48 
42 54 
42 57 
42 66 
42 68 
42 78 
42 82 
42 90 
42 91 
42 99 
42 102 
42 112 
42 114 
42 125 
42 126 
42 134 
42 138 
43 44 
43 45 
43 46 
43 47 
43 48 
43 55 
43 60 
43 64 
43 67 
43 78 
43 79 
43 87 
43 91 
43 98 
43 103 
43 109 
43 115 
43 127 
43 130 
43 137 
43 139 
44 45 
44 46 
44 47 
44 48 
44 49 
44 56 
44 66 
44 68 
44 77 
44 80 
44 86 
44 92 
44 104 
44 105 
44 115 
44 116 
44 124 
44 128 
44 135 
44 140 
45 46 
45 47 
45 48 
45 57 
45 59 
45 67 
45 69 
45 73 
45 81 
45 89 
45 93 
45 100 
45 105 
45 110 
45 117 
45 126 
45 129 
45 140 
45 141 
46 47 
46 48 
46 54 
46 58 
46 70 
46 71 
46 76 
46 82 
46 94 
46 96 
46 104 
46 106 
46 113 
46 118 
46 123 
46 130 
46 133 
46 142 
47 48 
47 53 
47 59 
47 71 
47 72 
47 75 
47 83 
47 90 
47 95 
47 97 
47 107 
47 117 
47 119 
47 127 
47 131 
47 142 
47 143 
48 55 
48 60 
48 70 
48 72 
48 80 
48 84 
48 93 
48 96 
48 107 
48 108 
48 114 
48 120 
48 122 
48 132 
48 136 
48 144 
49 50 
49 51 
49 52 
49 53 
49 54 
49 55 
49 56 
49 57 
49 58 
49 59 
49 60 
49 61 
49 66 
49 73 
49 77 
49 85 
49 86 
49 97 
49 105 
49 109 
49 115 
49 121 
49 124 
49 133 
49 135 
50 51 
50 52 
50 53 
50 54 
50 55 
50 56 
50 57 
50 58 
50 59 
50 60 
50 61 
50 62 
50 74 
50 81 
50 86 
50 95 
50 98 
50 106 
50 110 
50 120 
50 122 
50 128 
50 134 
50 139 
51 52 
51 53 
51 54 
51 55 
51 56 
51 57 
51 58 
51 59 
51 60 
51 63 
51 69 
51 75 
51 83 
51 87 
51 94 
51 99 
51 103 
51 111 
51 116 
51 123 
51 132 
51 135 
51 138 
52 53 
52 54 
52 55 
52 56 
52 57 
52 58 
52 59 
52 60 
52 63 
52 64 
52 76 
52 79 
52 88 
52 92 
52 100 
52 108 
52 112 
52 119 
52 121 
52 124 
52 136 
52 141 
53 54 
53 55 
53 56 
53 57 
53 58 
53 59 
53 60 
53 65 
53 72 
53 75 
53 77 
53 89 
53 90 
53 97 
53 101 
53 113 
53 117 
53 125 
53 127 
53 137 
53 142 
54 55 
54 56 
54 57 
54 58 
54 59 
54 60 
54 66 
54 71 
54 76 
54 78 
54 90 
54 96 
54 102 
54 104 
54 113 
54 114 
54 123 
54 126 
54 133 
54 138 
55 56 
55 57 
55 58 
55 59 
55 60 
55 67 
55 70 
55 79 
55 80 
55 91 
55 93 
55 103 
55 107 
55 114 
55 115 
55 122 
55 127 
55 136 
55 139 
56 57 
56 58 
56 59 
56 60 
56 62 
56 68 
56 80 
56 84 
56 85 
56 92 
56 101 
56 104 
56 116 
56 118 
56 128 
56 129 
56 140 
56 143 
57 58 
57 59 
57 60 
57 68 
57 69 
57 81 
57 82 
57 91 
57 93 
57 99 
57 105 
57 112 
57 117 
57 125 
57 129 
57 134 
57 141 
58 59 
58 60 
58 65 
58 70 
58 74 
58 82 
58 88 
58 94 
58 102 
58 106 
58 111 
58 118 
58 130 
58 131 
58 142 
58 144 
59 60 
59 67 
59 71 
59 73 
59 83 
59 89 
59 95 
59 100 
59 107 
59 110 
59 119 
59 126 
59 131 
59 140 
59 143 
60 64 
60 72 
60 78 
60 84 
60 87 
60 96 
60 98 
60 108 
60 109 
60 120 
60 130 
60 132 
60 137 
60 144 
61 62 
61 63 
61 64 
61 65 
61 66 
61 67 
61 68 
61 69 
61 70 
61 71 
61 72 
61 73 
61 81 
61 85 
61 95 
61 97 
61 106 
61 109 
61 120 
61 121 
61 128 
61 133 
61 139 
62 63 
62 64 
62 65 
62 66 
62 67 
62 68 
62 69 
62 70 
62 71 
62 72 
62 74 
62 84 
62 85 
62 86 
62 98 
62 101 
62 110 
62 118 
62 122 
62 129 
62 134 
62 143 
63 64 
63 65 
63 66 
63 67 
63 68 
63 69 
63 70 
63 71 
63 72 
63 75 
63 79 
63 87 
63 92 
63 99 
63 108 
63 111 
63 119 
63 121 
63 123 
63 135 
63 141 
64 65 
64 66 
64 67 
64 68 
64 69 
64 70 
64 71 
64 72 
64 76 
64 78 
64 87 
64 88 
64 98 
64 100 
64 109 
64 112 
64 124 
64 130 
64 136 
64 137 
65 66 
65 67 
65 68 
65 69 
65 70 
65 71 
65 72 
65 74 
65 77 
65 88 
65 89 
65 101 
65 102 
65 111 
65 113 
65 125 
65 131 
65 137 
65 144 
66 67 
66 68 
66 69 
66 70 
66 71 
66 72 
66 77 
66 78 
66 86 
66 90 
66 102 
66 105 
66 114 
66 115 
66 124 
66 126 
66 135 
66 138 
67 68 
67 69 
67 70 
67 71 
67 72 
67 73 
67 79 
67 89 
67 91 
67 100 
67 103 
67 110 
67 115 
67 126 
67 127 
67 139 
67 140 
68 69 
68 70 
68 71 
68 72 
68 80 
68 82 
68 91 
68 92 
68 99 
68 104 
68 112 
68 116 
68 125 
68 128 
68 134 
68 140 
69 70 
69 71 
69 72 
69 81 
69 83 
69 93 
69 94 
69 103 
69 105 
69 116 
69 117 
69 129 
69 132 
69 138 
69 141 
70 71 
70 72 
70 80 
70 82 
70 93 
70 94 
70 106 
70 107 
70 114 
70 118 
70 122 
70 130 
70 136 
70 142 
71 72 
71 76 
71 83 
71 95 
71 96 
71 104 
71 107 
71 113 
71 119 
71 123 
71 131 
71 133 
71 143 
72 75 
72 84 
72 90 
72 96 
72 97 
72 108 
72 117 
72 120 
72 127 
72 132 
72 142 
72 144 
73 74 
73 75 
73 76 
73 77 
73 78 
73 79 
73 80 
73 81 
73 82 
73 83 
73 84 
73 85 
73 89 
73 97 
73 100 
73 109 
73 110 
73 121 
73 126 
73 133 
73 140 
74 75 
74 76 
74 77 
74 78 
74 79 
74 80 
74 81 
74 82 
74 83 
74 84 
74 86 
74 88 
74 98 
74 102 
74 110 
74 111 
74 122 
74 131 
74 134 
74 144 
75 76 
75 77 
75 78 
75 79 
75 80 
75 81 
75 82 
75 83 
75 84 
75 87 
75 90 
75 97 
75 99 
75 111 
75 117 
75 123 
75 127 
75 135 
75 142 
76 77 
76 78 
76 79 
76 80 
76 81 
76 82 
76 83 
76 84 
76 88 
76 96 
76 100 
76 104 
76 112 
76 113 
76 123 
76 124 
76 133 
76 136 
77 78 
77 79 
77 80 
77 81 
77 82 
77 83 
77 84 
77 86 
77 89 
77 101 
77 105 
77 113 
77 115 
77 124 
77 125 
77 135 
77 137 
78 79 
78 80 
78 81 
78 82 
78 83 
78 84 
78 87 
78 90 
78 98 
78 102 
78 109 
78 114 
78 126 
78 130 
78 137 
78 138 
79 80 
79 81 
79 82 
79 83 
79 84 
79 91 
79 92 
79 103 
79 108 
79 115 
79 119 
79 121 
79 127 
79 139 
79 141 
80 81 
80 82 
80 83 
80 84 
80 92 
80 93 
80 104 
80 107 
80 114 
80 116 
80 122 
80 128 
80 136 
80 140 
81 82 
81 83 
81 84 
81 93 
81 95 
81 105 
81 106 
81 117 
81 120 
81 128 
81 129 
81 139 
81 141 
82 83 
82 84 
82 91 
82 94 
82 99 
82 106 
82 112 
82 118 
82 125 
82 130 
82 134 
82 142 
83 84 
83 94 
83 95 
83 103 
83 107 
83 116 
83 119 
83 131 
83 132 
83 138 
83 143 
84 85 
84 96 
84 101 
84 108 
84 118 
84 120 
84 129 
84 132 
84 143 
84 144 
85 86 
85 87 
85 88 
85 89 
85 90 
85 91 
85 92 
85 93 
85 94 
85 95 
85 96 
85 97 
85 101 
85 109 
85 118 
85 121 
85 129 
85 133 
85 143 
86 87 
86 88 
86 89 
86 90 
86 91 
86 92 
86 93 
86 94 
86 95 
86 96 
86 98 
86 105 
86 110 
86 115 
86 122 
86 124 
86 134 
86 135 
87 88 
87 89 
87 90 
87 91 
87 92 
87 93 
87 94 
87 95 
87 96 
87 98 
87 99 
87 109 
87 111 
87 123 
87 130 
87 135 
87 137 
88 89 
88 90 
88 91 
88 92 
88 93 
88 94 
88 95 
88 96 
88 100 
88 102 
88 111 
88 112 
88 124 
88 131 
88 136 
88 144 
89 90 
89 91 
89 92 
89 93 
89 94 
89 95 
89 96 
89 100 
89 101 
89 110 
89 113 
89 125 
89 126 
89 137 
89 140 
90 91 
90 92 
90 93 
90 94 
90 95 
90 96 
90 97 
90 102 
90 114 
90 117 
90 126 
90 127 
90 138 
90 142 
91 92 
91 93 
91 94 
91 95 
91 96 
91 99 
91 103 
91 112 
91 115 
91 125 
91 127 
91 134 
91 139 
92 93 
92 94 
92 95 
92 96 
92 104 
92 108 
92 116 
92 119 
92 121 
92 128 
92 140 
92 141 
93 94 
93 95 
93 96 
93 105 
93 107 
93 114 
93 117 
93 122 
93 129 
93 136 
93 141 
94 95 
94 96 
94 103 
94 106 
94 116 
94 118 
94 130 
94 132 
94 138 
94 142 
95 96 
95 106 
95 107 
95 119 
95 120 
95 128 
95 131 
95 139 
95 143 
96 104 
96 108 
96 113 
96 120 
96 123 
96 132 
96 133 
96 144 
97 98 
97 99 
97 100 
97 101 
97 102 
97 103 
97 104 
97 105 
97 106 
97 107 
97 108 
97 109 
97 117 
97 121 
97 127 
97 133 
97 142 
98 99 
98 100 
98 101 
98 102 
98 103 
98 104 
98 105 
98 106 
98 107 
98 108 
98 109 
98 110 
98 122 
98 130 
98 134 
98 137 
99 100 
99 101 
99 102 
99 103 
99 104 
99 105 
99 106 
99 107 
99 108 
99 111 
99 112 
99 123 
99 125 
99 134 
99 135 
100 101 
100 102 
100 103 
100 104 
100 105 
100 106 
100 107 
100 108 
100 110 
100 112 
100 124 
100 126 
100 136 
100 140 
101 102 
101 103 
101 104 
101 105 
101 106 
101 107 
101 108 
101 113 
101 118 
101 125 
101 129 
101 137 
101 143 
102 103 
102 104 
102 105 
102 106 
102 107 
102 108 
102 111 
102 114 
102 126 
102 131 
102 138 
102 144 
103 104 
103 105 
103 106 
103 107 
103 108 
103 115 
103 116 
103 127 
103 132 
103 138 
103 139 
104 105 
104 106 
104 107 
104 108 
104 113 
104 116 
104 123 
104 128 
104 133 
104 140 
105 106 
105 107 
105 108 
105 115 
105 117 
105 124 
105 129 
105 135 
105 141 
106 107 
106 108 
106 118 
106 120 
106 128 
106 130 
106 139 
106 142 
107 108 
107 114 
107 119 
107 122 
107 131 
107 136 
107 143 
108 119 
108 120 
108 121 
108 132 
108 141 
108 144 
109 110 
109 111 
109 112 
109 113 
109 114 
109 115 
109 116 
109 117 
109 118 
109 119 
109 120 
109 121 
109 130 
109 133 
109 137 
110 111 
110 112 
110 113 
110 114 
110 115 
110 116 
110 117 
110 118 
110 119 
110 120 
110 122 
110 126 
110 134 
110 140 
111 112 
111 113 
111 114 
111 115 
111 116 
111 117 
111 118 
111 119 
111 120 
111 123 
111 131 
111 135 
111 144 
112 113 
112 114 
112 115 
112 116 
112 117 
112 118 
112 119 
112 120 
112 124 
112 125 
112 134 
112 136 
113 114 
113 115 
113 116 
113 117 
113 118 
113 119 
113 120 
113 123 
113 125 
113 133 
113 137 
114 115 
114 116 
114 117 
114 118 
114 119 
114 120 
114 122 
114 126 
114 136 
114 138 
115 116 
115 117 
115 118 
115 119 
115 120 
115 124 
115 127 
115 135 
115 139 
116 117 
116 118 
116 119 
116 120 
116 128 
116 132 
116 138 
116 140 
117 118 
117 119 
117 120 
117 127 
117 129 
117 141 
117 142 
118 119 
118 120 
118 129 
118 130 
118 142 
118 143 
119 120 
119 121 
119 131 
119 141 
119 143 
120 128 
120 132 
120 139 
120 144 
121 122 
121 123 
121 124 
121 125 
121 126 
121 127 
121 128 
121 129 
121 130 
121 131 
121 132 
121 133 
121 141 
122 123 
122 124 
122 125 
122 126 
122 127 
122 128 
122 129 
122 130 
122 131 
122 132 
122 134 
122 136 
123 124 
123 125 
123 126 
123 127 
123 128 
123 129 
123 130 
123 131 
123 132 
123 133 
123 135 
124 125 
124 126 
124 127 
124 128 
124 129 
124 130 
124 131 
124 132 
124 135 
124 136 
125 126 
125 127 
125 128 
125 129 
125 130 
125 131 
125 132 
125 134 
125 137 
126 127 
126 128 
126 129 
126 130 
126 131 
126 132 
126 138 
126 140 
127 128 
127 129 
127 130 
127 131 
127 132 
127 139 
127 142 
128 129 
128 130 
128 131 
128 132 
128 139 
128 140 
129 130 
129 131 
129 132 
129 141 
129 143 
130 131 
130 132 
130 137 
130 142 
131 132 
131 143 
131 144 
132 138 
132 144 
133 134 
133 135 
133 136 
133 137 
133 138 
133 139 
133 140 
133 141 
133 142 
133 143 
133 144 
134 135 
134 136 
134 137 
134 138 
134 139 
134 140 
134 141 
134 142 
134 143 
134 144 
135 136 
135 137 
135 138 
135 139 
135 140 
135 141 
135 142 
135 143 
135 144 
136 137 
136 138 
136 139 
136 140 
136 141 
136 142 
136 143 
136 144 
137 138 
137 139 
137 140 
137 141 
137 142 
137 143 
137 144 
138 139 
138 140 
138 141 
138 142 
138 143 
138 144 
139 140 
139 141 
139 142 
139 143 
139 144 
140 141 
140 142 
140 143 
140 144 
141 142 
141 143 
141 144 
142 143 
142 144 
143 144 
